<?xml version="1.0" encoding="UTF-8"?><osil xmlns="os.optimizationservices.org" xmlns:xsi="http://www.w3.org/2001/XMLSchema-instance" xsi:schemaLocation="os.optimizationservices.org http://www.optimizationservices.org/schemas/2.0/OSiL.xsd"><instanceHeader><name>inscribedsquare01</name></instanceHeader><instanceData><variables numberOfVariables="8"><var name="x2" lb="-3.14159265358979" ub="3.14159265358979"/><var name="x3" lb="-3.14159265358979" ub="3.14159265358979"/><var name="x4" lb="-3.14159265358979" ub="3.14159265358979"/><var name="x5" lb="-3.14159265358979" ub="3.14159265358979"/><var name="x6" lb="-INF"/><var name="x7" lb="-INF"/><var name="x8"/><var name="x9"/></variables><objectives><obj maxOrMin="max" name="defObj_objvar" numberOfObjCoef="0"/></objectives><constraints numberOfConstraints="8"><con name="e2" lb="0" ub="0"/><con name="e3" lb="0" ub="0"/><con name="e4" lb="0" ub="0"/><con name="e5" lb="0" ub="0"/><con name="e6" lb="0" ub="0"/><con name="e7" lb="0" ub="0"/><con name="e8" lb="0" ub="0"/><con name="e9" lb="0" ub="0"/></constraints><linearConstraintCoefficients numberOfValues="16"><start><el mult="3" incr="1">0</el><el mult="4" incr="2">4</el><el>13</el><el>16</el></start><colIdx><el>4</el><el>5</el><el>4</el><el>6</el><el>5</el><el>7</el><el>4</el><el>7</el><el>5</el><el>6</el><el>4</el><el>6</el><el>7</el><el mult="3" incr="1">5</el></colIdx><value><el mult="7">-1</el><el>1</el><el mult="4">-1</el><el>1</el><el mult="3">-1</el></value></linearConstraintCoefficients><quadraticCoefficients numberOfQuadraticTerms="2"><qTerm idx="-1" idxOne="6" idxTwo="6" coef="1"/><qTerm idx="-1" idxOne="7" idxTwo="7" coef="1"/></quadraticCoefficients><nonlinearExpressions numberOfNonlinearExpressions="8"><nl idx="0"><product><sin><variable idx="0"/></sin><cos><variable idx="0"/></cos></product></nl><nl idx="1"><product><sin><variable idx="0"/></sin><variable idx="0"/></product></nl><nl idx="2"><product><sin><variable idx="1"/></sin><cos><variable idx="1"/></cos></product></nl><nl idx="3"><product><sin><variable idx="1"/></sin><variable idx="1"/></product></nl><nl idx="4"><product><sin><variable idx="2"/></sin><cos><variable idx="2"/></cos></product></nl><nl idx="5"><product><sin><variable idx="2"/></sin><variable idx="2"/></product></nl><nl idx="6"><product><sin><variable idx="3"/></sin><cos><variable idx="3"/></cos></product></nl><nl idx="7"><product><sin><variable idx="3"/></sin><variable idx="3"/></product></nl></nonlinearExpressions></instanceData></osil>